45 415
4 5 8 9 11 15 16 20 21 24 25 26 31 34 37
4 9 10 11 14 16 18 19 21 27 32 34 36 37 39 43 44
3 8 9 10 13 14 15 17 18 20 21 22 28 34 35 36 37 39 43
2 4 5 7 12 13 14 17 18 19 22 23 35 36 38 41 43
0 1 3 5 6 8 9 11 12 16 17 23 31 34 37 41
0 3 4 8 9 10 11 12 17 18 23 25 26 27 28 29 31 32 34 39 40 42 43 44
4 11 12 13 18 19 22 25 27 28 31 33 37 38 44
3 9 11 12 13 14 18 19 21 25 27 29 34 38 41 42
0 2 4 5 9 15 17 19 20 21 25 27 28 30 31 32 33 34 35 40 41 42 44
0 1 2 4 5 7 8 11 12 16 17 19 21 23 24 29 31 38 39 40 41
1 2 5 14 19 22 25 26 27 28 31 32 33 34 40 41 42
0 1 4 5 6 7 9 13 14 15 18 20 21 22 24 25 28 30 34 38 41 43
3 4 5 6 7 9 19 20 21 24 25 26 31 33 34 37 39 40 43
2 3 6 7 11 14 15 16 17 23 24 28 30 39 40 41
1 2 3 7 10 11 13 16 21 25 33 34 36 37 38 41 42
0 2 8 11 13 16 17 19 23 24 25 26 33 36 40 41 42 43 44
0 1 4 9 13 14 15 17 18 19 21 22 29 30 32 33 35 38 39 40 41 42 43
2 3 4 5 8 9 13 15 16 21 23 24 25 26 27 28 30 31 35 38
1 2 3 5 6 7 11 16 21 22 30 36 43
1 3 6 7 8 9 10 12 15 16 21 22 26 27 29 30 31 32 37 44
0 2 8 11 12 22 28 29 34 35 36 37 38 44
0 1 2 7 8 9 11 12 14 16 17 18 19 22 25 26 27 34 35 36 37 38 39 40 41 42 44
2 3 6 10 11 16 18 19 20 21 24 25 26 29 31 33 34 36 37 42 43
3 4 5 9 13 15 17 24 25 27 29 30 33 35 36
0 9 11 12 13 15 17 22 23 25 27 31 34 35 38 40 41 42
0 5 6 7 8 10 11 12 14 15 17 21 22 23 24 26 31 33 34 35 37 40 41 42 43
0 5 10 12 15 17 19 21 22 25 30 38 41 42 44
1 5 6 7 8 10 17 19 21 23 24 29 30 34 36 37 38 39 42 43
2 5 6 8 10 11 13 17 20 30 34 36 37 39 40
5 7 9 16 19 20 22 23 27 30 34 36 37 38 41 42 44
8 11 13 16 17 18 19 23 26 27 28 29 31 33 34 35 36 38 42 44
0 4 5 6 8 9 10 12 17 19 22 24 25 30 35 38 39
1 5 8 10 16 19 34 35 36 38 40 41 44
6 8 10 12 14 15 16 22 23 25 30 36 38 40 42 44
0 1 2 4 5 7 8 10 11 12 14 20 21 22 24 25 27 28 29 30 32 35 36 40 41 43 44
2 3 8 16 17 20 21 23 24 25 30 31 32 34 40
1 2 3 14 15 18 20 21 22 23 27 28 29 30 32 33 34 38 39
0 1 2 4 6 12 14 19 20 21 22 25 27 28 29 38
3 6 7 9 11 14 16 17 20 21 24 26 27 29 30 31 32 33 36 37 40 44
1 2 5 9 12 13 16 21 27 28 31 36 40 42 44
5 8 9 10 12 13 15 16 21 24 25 28 32 33 34 35 38 39 41
3 4 7 8 9 10 11 13 14 15 16 21 24 25 26 29 32 34 40 42 43
5 7 8 10 14 15 16 21 22 24 25 26 27 29 30 33 39 41 43 44
1 2 3 5 11 12 15 16 18 22 25 27 34 41 42 44
1 5 6 8 15 19 20 21 26 29 30 32 33 34 38 39 42 43
